c Random 3-CNF over 20 variables and 400 clauses
c Generated with `cnfgen`
c (C) 2012-2018 Massimo Lauria <lauria.massimo@gmail.com>
c https://massimolauria.github.io/cnfgen
c
c COMMAND LINE: cnfgen -of dimacs -o f randkcnf 3 20 400
c
p cnf 20 400
13 -14 -15 0
8 -12 17 0
6 9 -17 0
-1 -8 -13 0
4 -15 -17 0
-4 -8 18 0
-1 16 19 0
-1 -8 17 0
-9 -11 -13 0
2 5 13 0
-4 12 18 0
1 -4 -14 0
-9 14 15 0
-6 7 11 0
7 -8 16 0
-6 8 19 0
9 16 -19 0
3 -6 -18 0
13 -16 17 0
15 -16 19 0
8 -15 -19 0
7 13 -18 0
1 -5 19 0
4 5 18 0
-3 12 -17 0
-5 6 9 0
5 -6 20 0
-1 -3 -17 0
-1 9 12 0
-9 12 13 0
-6 -10 -16 0
10 15 16 0
-2 -8 10 0
-9 -17 19 0
-4 13 -16 0
-12 13 19 0
9 -10 14 0
-9 17 18 0
-1 -3 -8 0
-11 16 18 0
10 -14 -17 0
1 8 9 0
11 -14 15 0
14 -16 19 0
15 -16 20 0
-4 -16 -19 0
3 14 18 0
13 -15 20 0
-4 13 -15 0
3 13 15 0
-2 5 -7 0
-2 -7 -19 0
-2 -3 -20 0
-6 9 -10 0
-5 13 15 0
2 -3 -9 0
-3 -8 -9 0
-10 14 -17 0
2 8 10 0
-9 14 -17 0
-6 8 -11 0
-3 6 -17 0
7 11 13 0
5 6 -18 0
-8 10 -13 0
9 -12 -17 0
-8 -17 -18 0
-5 -17 -18 0
3 -6 7 0
-6 -16 -20 0
2 -4 20 0
4 -8 -17 0
13 -16 19 0
-5 7 -9 0
-2 6 20 0
1 -9 -14 0
-3 -9 10 0
-4 -8 -14 0
1 -2 -13 0
1 -3 9 0
8 -15 20 0
-3 14 18 0
7 9 14 0
7 -14 -15 0
-14 -16 -20 0
2 -6 15 0
-12 -13 16 0
5 -14 -20 0
3 14 -19 0
-3 14 -19 0
-1 -7 -19 0
10 13 -14 0
4 -11 19 0
-1 -4 -19 0
10 -13 -14 0
5 9 10 0
1 7 9 0
-6 11 -20 0
7 8 -11 0
9 14 -16 0
-4 -13 -15 0
-1 9 -10 0
1 -8 9 0
12 13 15 0
12 14 19 0
10 11 16 0
6 -10 12 0
1 -4 -9 0
-8 -11 -14 0
8 -13 -15 0
-3 -11 -14 0
-2 -5 -9 0
-5 -9 16 0
-7 11 -17 0
-3 9 15 0
-10 -18 19 0
-13 15 17 0
9 14 16 0
10 -13 18 0
8 10 -12 0
-2 3 -10 0
-1 4 17 0
-2 8 12 0
2 6 -9 0
-3 6 16 0
7 -9 13 0
-7 -10 18 0
6 8 14 0
-1 6 -12 0
-5 -11 19 0
-4 7 -9 0
-6 19 -20 0
-5 16 17 0
-9 -14 15 0
-8 15 20 0
-1 -5 -15 0
3 -10 12 0
5 -14 -18 0
4 12 16 0
-9 10 19 0
9 14 17 0
-15 -18 -19 0
2 4 -20 0
-5 -9 13 0
-5 7 -20 0
1 3 -10 0
-5 12 19 0
-5 -13 -14 0
8 -9 14 0
4 -9 -19 0
16 17 -19 0
-4 -13 16 0
-12 -15 17 0
-2 3 18 0
1 -4 -19 0
-1 -5 6 0
5 -13 16 0
3 11 -15 0
-2 4 18 0
8 10 -20 0
6 9 -15 0
6 17 -18 0
-2 8 10 0
5 -7 -8 0
-5 -7 -14 0
15 17 19 0
-3 -6 -14 0
-10 -12 13 0
-9 -13 -14 0
11 14 -15 0
6 14 16 0
-13 -19 -20 0
-10 -14 -17 0
7 8 12 0
-9 -15 18 0
6 10 -12 0
1 -5 -8 0
12 13 -16 0
1 -8 -15 0
5 7 -9 0
-10 16 -20 0
3 -18 -19 0
10 -11 13 0
-1 7 -13 0
1 -11 20 0
-7 -12 20 0
-9 11 -12 0
-4 9 19 0
8 12 18 0
-5 13 16 0
-7 9 18 0
3 -14 -16 0
-7 15 -19 0
-8 -15 -20 0
-1 -7 20 0
-4 5 -18 0
1 2 -17 0
13 -14 -18 0
-9 10 11 0
7 -8 15 0
3 -4 -17 0
-4 7 -12 0
1 6 -17 0
3 8 18 0
-4 -8 -17 0
12 -14 -17 0
13 -17 -18 0
6 16 -20 0
3 -18 -20 0
-12 13 18 0
-8 -16 19 0
4 -13 -20 0
-4 -6 16 0
-10 15 20 0
-5 -8 10 0
9 10 11 0
2 12 17 0
-9 13 20 0
-4 8 -19 0
-2 9 -11 0
7 16 -18 0
-7 8 -11 0
4 -7 15 0
-7 16 -19 0
2 -12 13 0
-7 -15 -17 0
1 -10 14 0
6 -7 18 0
-3 -6 7 0
8 18 -19 0
7 16 20 0
-4 7 14 0
-2 -7 14 0
-3 9 14 0
-4 -8 16 0
-6 15 -20 0
-8 11 15 0
14 -17 -19 0
1 -5 -12 0
14 -16 -19 0
13 14 19 0
-3 -11 13 0
7 10 13 0
-1 19 20 0
5 11 16 0
-14 -15 -17 0
-10 -13 15 0
-1 -4 -8 0
16 -19 20 0
-4 -9 -15 0
5 -13 -16 0
4 -9 -15 0
-6 8 -15 0
1 -13 18 0
-8 -13 -17 0
-4 7 11 0
-8 -12 16 0
2 8 16 0
2 -4 -19 0
3 -6 -10 0
1 -3 13 0
-11 12 -17 0
4 12 -19 0
4 -8 -13 0
4 -7 -17 0
3 8 19 0
5 7 10 0
-5 -9 -14 0
-2 14 20 0
-5 13 17 0
5 14 -17 0
6 -11 18 0
4 -15 19 0
-6 16 -17 0
-2 -19 -20 0
-1 -4 19 0
-1 -7 -9 0
-2 6 16 0
-6 10 17 0
-1 -7 -11 0
-11 -16 17 0
8 12 14 0
-6 9 14 0
-11 -19 20 0
-4 -12 19 0
2 -9 -19 0
-2 17 -19 0
5 -8 9 0
-8 -9 -17 0
-2 7 14 0
-4 -6 8 0
-5 -13 -20 0
7 -8 -14 0
-4 -10 -12 0
-11 -18 -20 0
3 -10 17 0
-12 -15 -17 0
7 15 17 0
-9 13 14 0
2 6 -19 0
6 11 -15 0
-5 -8 -9 0
-1 -13 -20 0
5 -8 -17 0
2 13 -19 0
1 3 -9 0
2 12 -13 0
-3 12 -16 0
2 3 10 0
-3 4 -15 0
-9 -15 -18 0
-5 -7 12 0
2 12 -20 0
5 13 -18 0
-14 16 -19 0
3 8 13 0
2 -15 17 0
-6 11 19 0
8 -12 -13 0
-7 -17 -19 0
7 -15 -20 0
3 12 13 0
-1 3 14 0
-9 13 -16 0
-13 -16 -17 0
-2 -7 -9 0
2 -7 -20 0
-13 -17 18 0
-5 9 16 0
-2 7 -17 0
-1 -16 20 0
-3 11 16 0
10 -15 16 0
7 13 17 0
-3 -13 -17 0
-6 8 -17 0
2 -14 -18 0
13 16 -19 0
9 16 18 0
10 18 -19 0
4 5 -12 0
9 11 -13 0
-5 -12 14 0
-2 -9 -11 0
1 13 -15 0
9 -10 -12 0
2 -3 -15 0
-2 18 19 0
-7 8 -18 0
-4 7 9 0
5 6 17 0
7 9 -12 0
8 -9 -14 0
5 10 -19 0
9 10 17 0
-2 -8 -17 0
-4 15 17 0
-1 -6 -16 0
-3 -12 -19 0
-1 -12 18 0
1 -7 14 0
1 -7 -18 0
1 -11 14 0
8 -16 -18 0
4 16 -17 0
10 16 19 0
-1 -10 -13 0
6 -17 -20 0
-7 -11 20 0
-1 -5 -8 0
9 -16 19 0
1 -6 -8 0
-10 -11 -19 0
-9 -12 17 0
-5 -15 -17 0
-7 9 -18 0
3 4 11 0
3 -5 19 0
-3 -4 -15 0
-5 7 17 0
-2 -8 -18 0
-3 4 -16 0
-9 10 17 0
-8 11 12 0
-2 -3 18 0
1 4 8 0
3 8 -16 0
10 -18 19 0
-4 -5 16 0
10 -12 15 0
-2 -4 20 0
-1 -7 -16 0
9 -14 -20 0
2 7 -10 0
-1 2 13 0
-4 13 18 0
14 16 19 0
5 -12 -15 0
-7 -9 13 0
-3 -18 20 0
